c instance by G2
c solution = 0100011110011
c Known solution cost is 652 
p cnf 13 30
w 13 16 13 36 34 84 45 52 48 80 79 92 60
-13 -6 7 0
4 3 13 0
11 8 -13 0
-9 10 12 0
-7 -3 -8 0
3 5 2 0
1 3 8 0
-13 5 12 0
-6 10 13 0
3 -8 13 0
-10 -9 -6 0
-5 4 8 0
7 -6 8 0
-9 5 -11 0
4 -3 2 0
3 4 -1 0
-1 -9 -10 0
11 6 -13 0
-9 1 -4 0
6 -13 10 0
-1 13 -5 0
12 11 8 0
-8 -10 -7 0
-11 -12 4 0
-8 7 1 0
6 -2 -7 0
-6 -12 -5 0
4 9 -6 0
8 9 7 0
-6 9 -11 0
